s 1
v 1 2 -3 4 5 6 -7 8 9 10 11 12 13 -14 -15 +-16 17 +-18 -19 +-20 -21 22 23 24 25
t 1ms
Wed Feb 20 17:14:11 2019
s 1
v +1 +2 -3 +4 +5 +6 -7 +8 +9 +10 +11 +12 +13 -14 -15 +-16 +17 +-18 -19 +-20 -21 +22 +23 +24 +25
t 0ms
Tue Feb 26 11:19:29 2019
s 1
v +1 +2 -3 +4 +5 +6 -7 +8 +9 +10 +11 +12 +13 -14 -15 +-16 +17 +-18 -19 +-20 -21 +22 +23 +24 +25
t 1ms
Tue Feb 26 11:22:05 2019
s 1
v +1 +2 -3 +4 +5 +6 -7 +8 +9 +10 +11 +12 +13 +14 -15 -16 +17 +18 -19 +-20 -21 +22 +23 +24 +25
t 0ms
Tue Feb 26 11:26:06 2019
